MLT05
Position Depot: Random
Horizon for Depot: Large
Position of customers: Mixt
Distribution of the demand: Small
Width of time windows: Tight
Distribution of the service: Large

VEHICLE 
NUMBER 	 CAPACITY 
 16 	 	 23 
 
CUSTOMER
CUST NO. 	 XCOORD.  	 YCOORD. 	 DEMAND 	 READY TIME 	 DUE DATE 	 SERVICE TIME 
 0 	 	 664 	 	 360 	 	 0 	 	 0 	 	 3064 	 	 0 
  1 	 	 55 	 	 323 	 	 8 	 	 2831 	 	 2950 	 	 145 
  2 	 	 478 	 	 501 	 	 6 	 	 525 	 	 644 	 	 101 
  3 	 	 191 	 	 480 	 	 9 	 	 854 	 	 924 	 	 152 
  4 	 	 54 	 	 241 	 	 5 	 	 2236 	 	 2308 	 	 193 
  5 	 	 858 	 	 272 	 	 8 	 	 570 	 	 628 	 	 145 
  6 	 	 751 	 	 100 	 	 6 	 	 2755 	 	 2817 	 	 184 
  7 	 	 459 	 	 995 	 	 9 	 	 2082 	 	 2221 	 	 111 
  8 	 	 173 	 	 436 	 	 7 	 	 2928 	 	 2985 	 	 110 
  9 	 	 859 	 	 214 	 	 6 	 	 303 	 	 379 	 	 156 
  10 	 	 449 	 	 832 	 	 8 	 	 383 	 	 570 	 	 132 
  11 	 	 485 	 	 522 	 	 10 	 	 2868 	 	 3064 	 	 147 
  12 	 	 511 	 	 492 	 	 5 	 	 352 	 	 468 	 	 179 
  13 	 	 89 	 	 464 	 	 5 	 	 970 	 	 1057 	 	 102 
  14 	 	 464 	 	 489 	 	 10 	 	 2814 	 	 2988 	 	 195 
  15 	 	 853 	 	 269 	 	 6 	 	 920 	 	 1012 	 	 106 
  16 	 	 412 	 	 492 	 	 6 	 	 2769 	 	 2907 	 	 106 
  17 	 	 14 	 	 394 	 	 7 	 	 671 	 	 838 	 	 116 
  18 	 	 472 	 	 979 	 	 9 	 	 2730 	 	 2808 	 	 159 
  19 	 	 902 	 	 160 	 	 5 	 	 1774 	 	 1871 	 	 138 
  20 	 	 691 	 	 97 	 	 6 	 	 2321 	 	 2439 	 	 121 
  21 	 	 428 	 	 502 	 	 6 	 	 1294 	 	 1458 	 	 189 
  22 	 	 478 	 	 490 	 	 6 	 	 801 	 	 902 	 	 170 
  23 	 	 228 	 	 546 	 	 7 	 	 424 	 	 521 	 	 195 
  24 	 	 831 	 	 382 	 	 8 	 	 2526 	 	 2582 	 	 184 
  25 	 	 721 	 	 157 	 	 10 	 	 1369 	 	 1455 	 	 104 
  26 	 	 776 	 	 963 	 	 9 	 	 568 	 	 674 	 	 116 
  27 	 	 653 	 	 664 	 	 6 	 	 2669 	 	 2798 	 	 138 
  28 	 	 329 	 	 131 	 	 7 	 	 647 	 	 846 	 	 187 
  29 	 	 737 	 	 0 	 	 8 	 	 1492 	 	 1600 	 	 135 
  30 	 	 0 	 	 500 	 	 8 	 	 2297 	 	 2348 	 	 108 
  31 	 	 202 	 	 128 	 	 9 	 	 885 	 	 998 	 	 197 
  32 	 	 269 	 	 517 	 	 8 	 	 1490 	 	 1654 	 	 174 
  33 	 	 484 	 	 137 	 	 7 	 	 507 	 	 611 	 	 199 
  34 	 	 787 	 	 128 	 	 5 	 	 1932 	 	 2074 	 	 168 
  35 	 	 129 	 	 640 	 	 10 	 	 580 	 	 664 	 	 134 
  36 	 	 861 	 	 958 	 	 10 	 	 1677 	 	 1815 	 	 153 
  37 	 	 988 	 	 958 	 	 10 	 	 562 	 	 748 	 	 180 
  38 	 	 266 	 	 893 	 	 6 	 	 2732 	 	 2870 	 	 126 
  39 	 	 915 	 	 474 	 	 10 	 	 2265 	 	 2317 	 	 107 
  40 	 	 118 	 	 941 	 	 5 	 	 2251 	 	 2425 	 	 104 
  41 	 	 154 	 	 12 	 	 6 	 	 2169 	 	 2277 	 	 177 
  42 	 	 500 	 	 189 	 	 7 	 	 1095 	 	 1264 	 	 185 
  43 	 	 392 	 	 380 	 	 10 	 	 226 	 	 300 	 	 133 
  44 	 	 516 	 	 931 	 	 5 	 	 574 	 	 679 	 	 197 
  45 	 	 221 	 	 686 	 	 7 	 	 745 	 	 911 	 	 104 
  46 	 	 601 	 	 778 	 	 9 	 	 2345 	 	 2480 	 	 199 
  47 	 	 495 	 	 850 	 	 6 	 	 466 	 	 570 	 	 153 
  48 	 	 431 	 	 534 	 	 8 	 	 1134 	 	 1246 	 	 122 
  49 	 	 543 	 	 293 	 	 6 	 	 299 	 	 362 	 	 171 
  50 	 	 713 	 	 378 	 	 10 	 	 2760 	 	 2878 	 	 137 
 